NAME          COPTPROB
OBJSENSE
  MIN
ROWS
 N  __OBJ___
 L  C63     
 L  C82     
 L  C90     
 L  C99     
 L  C128    
COLUMNS
    MARKER    'MARKER'                 'INTORG'
    x2467     __OBJ___  25
    x2467     C63       -1
    x2467     C99       -1
    x2498     __OBJ___  11
    x2498     C82       -1
    x2535     __OBJ___  20
    x2535     C90       -1
    x2567     __OBJ___  62
    x2567     C63       -1
    x2567     C128      -1
    x3019     __OBJ___  31
    x3019     C90       -1
    x3019     C99       -1
    x3504     __OBJ___  30
    x3504     C82       -1
    x3504     C90       -1
    x3653     __OBJ___  46
    x3653     C82       -1
    x3653     C128      -1
    x6340     __OBJ___  15
    x6340     C99       -1
    MARKER    'MARKER'                 'INTEND'
RHS
    RHS       __OBJ___  -2106
    RHS       C63       -1
    RHS       C82       -1
    RHS       C90       -1
    RHS       C99       -1
    RHS       C128      -1
BOUNDS
 UP BOUND     x2467     1
 UP BOUND     x2498     1
 UP BOUND     x2535     1
 UP BOUND     x2567     1
 UP BOUND     x3019     1
 UP BOUND     x3504     1
 UP BOUND     x3653     1
 UP BOUND     x6340     1
ENDATA
